20
1 0 138
2 0 114
2 1 141
3 0 50
3 1 22
3 2 94
4 0 53
4 1 13
4 2 57
4 3 56
5 0 63
5 1 124
5 2 69
5 3 113
5 4 32
6 0 35
6 1 150
6 2 115
6 3 78
6 4 31
6 5 37
7 0 46
7 1 87
7 2 17
7 3 152
7 4 73
7 5 80
7 6 31
8 0 121
8 1 101
8 2 86
8 3 148
8 4 71
8 5 39
8 6 112
8 7 116
9 0 104
9 1 49
9 2 35
9 3 32
9 4 136
9 5 155
9 6 91
9 7 73
9 8 64
10 0 3
10 1 128
10 2 37
10 3 122
10 4 142
10 5 119
10 6 139
10 7 31
10 8 110
10 9 9
11 0 67
11 1 81
11 2 41
11 3 65
11 4 61
11 5 118
11 6 47
11 7 27
11 8 138
11 9 127
11 10 160
12 0 56
12 1 21
12 2 69
12 3 146
12 4 119
12 5 147
12 6 15
12 7 124
12 8 72
12 9 140
12 10 85
12 11 90
13 0 49
13 1 10
13 2 27
13 3 25
13 4 135
13 5 72
13 6 111
13 7 34
13 8 133
13 9 102
13 10 46
13 11 28
13 12 77
14 0 70
14 1 78
14 2 90
14 3 144
14 4 153
14 5 99
14 6 148
14 7 69
14 8 54
14 9 45
14 10 15
14 11 134
14 12 43
14 13 48
15 0 106
15 1 86
15 2 151
15 3 19
15 4 128
15 5 66
15 6 17
15 7 106
15 8 133
15 9 127
15 10 45
15 11 152
15 12 29
15 13 103
15 14 73
16 0 27
16 1 102
16 2 21
16 3 106
16 4 137
16 5 1
16 6 11
16 7 55
16 8 79
16 9 96
16 10 142
16 11 62
16 12 101
16 13 38
16 14 22
16 15 39
17 0 47
17 1 87
17 2 109
17 3 83
17 4 59
17 5 127
17 6 18
17 7 140
17 8 26
17 9 105
17 10 2
17 11 45
17 12 63
17 13 74
17 14 10
17 15 132
17 16 37
18 0 154
18 1 34
18 2 98
18 3 30
18 4 97
18 5 54
18 6 95
18 7 158
18 8 137
18 9 23
18 10 40
18 11 111
18 12 13
18 13 29
18 14 72
18 15 116
18 16 4
18 17 45
19 0 2
19 1 88
19 2 142
19 3 130
19 4 108
19 5 32
19 6 76
19 7 78
19 8 100
19 9 130
19 10 15
19 11 101
19 12 107
19 13 155
19 14 155
19 15 30
19 16 118
19 17 78
19 18 77
